00000000000000011001100110011001
00000000000000001100110011001100
00000000010100000000000000000000
00000000000100000000000000000000
00000000000000011001100110011001
00000000000100000000000000000000
00000000000100000000000000000000
00000000000000000000000000000000
00000000000000000000000000000000
00000000000000000000000000000000
00000000000000011001100110011001
00000000000001101111101110100100
00000000000000011011111011101001
00000000000001101111101110100100
00000000000000110111110111010010
00000000000000011011111011101001
00000000000000110111110111010010
